<?xml version = "1.0" encoding="UTF-8" standalone="yes"?>
<CPLEXSolution version="1.2">
 <header
   problemName="cluster_small_cut_n15"
   objectiveValue="74.536585365853455"
   solutionTypeValue="1"
   solutionTypeString="basic"
   solutionStatusValue="1"
   solutionStatusString="optimal"
   solutionMethodString="dual"
   primalFeasible="1"
   dualFeasible="1"
   simplexIterations="1"
   writeLevel="1"/>
 <quality
   epRHS="9.9999999999999995e-07"
   epOpt="9.9999999999999995e-07"
   maxPrimalInfeas="0"
   maxDualInfeas="0"
   maxPrimalResidual="9.2370555648813024e-14"
   maxDualResidual="7.1054273576010019e-15"
   maxX="2.1707317073169605"
   maxPi="3.6951219512195088"
   maxSlack="930.34146341463406"
   maxRedCost="146.00609756097541"
   kappa="423.24682084834967"/>
 <linearConstraints>
  <constraint name="c0" index="0" status="BS" slack="1.3658536585366896" dual="-0"/>
  <constraint name="c1" index="1" status="BS" slack="428.17073170731726" dual="-0"/>
  <constraint name="c2" index="2" status="BS" slack="819.48780487804879" dual="-0"/>
  <constraint name="c3" index="3" status="BS" slack="323.19512195121951" dual="-0"/>
  <constraint name="c4" index="4" status="BS" slack="930.34146341463406" dual="-0"/>
  <constraint name="c5" index="5" status="LL" slack="0" dual="-0"/>
  <constraint name="c6" index="6" status="BS" slack="74.707317073170813" dual="-0"/>
  <constraint name="c7" index="7" status="BS" slack="387.73170731707313" dual="-0"/>
  <constraint name="c8" index="8" status="BS" slack="119.31707317073169" dual="-0"/>
  <constraint name="c9" index="9" status="BS" slack="589.46341463414672" dual="-0"/>
  <constraint name="c10" index="10" status="BS" slack="681.5853658536588" dual="-0"/>
  <constraint name="c11" index="11" status="BS" slack="554.97560975609781" dual="-0"/>
  <constraint name="c12" index="12" status="BS" slack="705.07317073170725" dual="-0"/>
  <constraint name="c13" index="13" status="BS" slack="326.4634146341466" dual="-0"/>
  <constraint name="c14" index="14" status="BS" slack="677.09756097561012" dual="-0"/>
  <constraint name="cut_1" index="15" status="BS" slack="0.58536585365864013" dual="-0"/>
  <constraint name="cut_2" index="16" status="BS" slack="0.73170731707317316" dual="-0"/>
  <constraint name="cut_3" index="17" status="BS" slack="1.0487804878048479" dual="-0"/>
  <constraint name="cut_4" index="18" status="BS" slack="1.3414634146342124" dual="-0"/>
  <constraint name="cut_5" index="19" status="BS" slack="0.19512195121955855" dual="-0"/>
  <constraint name="cut_6" index="20" status="BS" slack="1.4390243902438016" dual="-0"/>
  <constraint name="cut_7" index="21" status="BS" slack="0.195121951219555" dual="-0"/>
  <constraint name="cut_8" index="22" status="BS" slack="0.8048780487805498" dual="-0"/>
  <constraint name="cut_9" index="23" status="BS" slack="1.2195121951219718" dual="-0"/>
  <constraint name="cut_10" index="24" status="LL" slack="0" dual="3.6951219512195088"/>
  <constraint name="cut_11" index="25" status="BS" slack="0.51219512195129369" dual="-0"/>
  <constraint name="cut_12" index="26" status="BS" slack="2.2926829268291868" dual="-0"/>
  <constraint name="cut_13" index="27" status="BS" slack="1.4634146341463818" dual="-0"/>
  <constraint name="cut_14" index="28" status="BS" slack="1.1707317073170742" dual="-0"/>
  <constraint name="cut_15" index="29" status="LL" slack="0" dual="0.2865853658536589"/>
 </linearConstraints>
 <variables>
  <variable name="x0" index="0" status="LL" value="0" reducedCost="-84.999999999999929"/>
  <variable name="x1" index="1" status="LL" value="0" reducedCost="-44.048780487804841"/>
  <variable name="x2" index="2" status="LL" value="0" reducedCost="-126.95121951219488"/>
  <variable name="x3" index="3" status="BS" value="0.73170731707316627" reducedCost="0"/>
  <variable name="x4" index="4" status="LL" value="0" reducedCost="-117.81707317073146"/>
  <variable name="x5" index="5" status="LL" value="0" reducedCost="-13.884146341463275"/>
  <variable name="x6" index="6" status="LL" value="0" reducedCost="-112.96951219512181"/>
  <variable name="x7" index="7" status="LL" value="0" reducedCost="-146.00609756097541"/>
  <variable name="x8" index="8" status="BS" value="0.78048780487805025" reducedCost="0"/>
  <variable name="x9" index="9" status="LL" value="0" reducedCost="-21.195121951219495"/>
  <variable name="x10" index="10" status="LL" value="0" reducedCost="-110.84146341463402"/>
  <variable name="x11" index="11" status="LL" value="0" reducedCost="-109.86585365853645"/>
  <variable name="s0" index="12" status="LL" value="0" reducedCost="0"/>
  <variable name="s1" index="13" status="LL" value="0" reducedCost="0"/>
  <variable name="s2" index="14" status="LL" value="0" reducedCost="0"/>
  <variable name="s3" index="15" status="LL" value="0" reducedCost="0"/>
  <variable name="s4" index="16" status="LL" value="0" reducedCost="0"/>
  <variable name="s5" index="17" status="BS" value="2.1707317073169605" reducedCost="0"/>
  <variable name="s6" index="18" status="LL" value="0" reducedCost="0"/>
  <variable name="s7" index="19" status="LL" value="0" reducedCost="0"/>
  <variable name="s8" index="20" status="LL" value="0" reducedCost="0"/>
  <variable name="s9" index="21" status="LL" value="0" reducedCost="0"/>
  <variable name="s10" index="22" status="LL" value="0" reducedCost="0"/>
  <variable name="s11" index="23" status="LL" value="0" reducedCost="0"/>
  <variable name="s12" index="24" status="LL" value="0" reducedCost="0"/>
  <variable name="s13" index="25" status="LL" value="0" reducedCost="0"/>
  <variable name="s14" index="26" status="LL" value="0" reducedCost="0"/>
 </variables>
 <objectiveValues>
  <objective index="0" name="" value="74.536585365853483"/>
 </objectiveValues>
</CPLEXSolution>
